p cnf 81 275
-2 -3 0
2 -3 0
4 -1 0
4 -3 0
1 3 -4 0
6 -4 0
6 5 0
4 -5 -6 0
-6 7 -8 0
6 -7 -8 0
-6 -7 8 0
6 7 8 0
9 -10 -11 0
-9 10 -11 0
9 10 11 0
-9 -10 11 0
-14 -12 0
-14 -13 0
12 13 14 0
16 14 0
16 -15 0
-14 15 -16 0
17 16 0
17 10 0
-16 -10 -17 0
-19 -12 0
-19 18 0
12 -18 19 0
-19 3 -20 0
19 -3 -20 0
-19 -3 20 0
19 3 20 0
21 17 0
21 -20 0
-17 20 -21 0
22 11 0
22 21 0
-11 -21 -22 0
-23 17 0
-23 -16 0
-17 16 23 0
14 -19 -24 0
-14 19 -24 0
14 19 24 0
-14 -19 24 0
-26 24 0
-26 -25 0
-24 25 26 0
27 23 0
27 -26 0
-23 26 -27 0
22 27 -28 0
-22 -27 -28 0
22 -27 28 0
-22 27 28 0
-29 -15 0
-29 20 0
15 -20 29 0
5 30 -31 0
-5 -30 -31 0
5 -30 31 0
-5 30 31 0
32 25 0
32 -31 0
-25 31 -32 0
-33 20 0
-33 -32 0
-20 32 33 0
33 -3 -34 0
-33 3 -34 0
33 3 34 0
-33 -3 34 0
35 -10 0
35 -34 0
10 34 -35 0
14 -18 -36 0
-14 18 -36 0
14 18 36 0
-14 -18 36 0
-36 -13 -37 0
36 13 -37 0
-36 13 37 0
36 -13 37 0
-38 5 0
-38 37 0
-5 -37 38 0
-39 -13 0
-39 -31 0
13 31 39 0
38 39 -40 0
-38 -39 -40 0
38 -39 40 0
-38 39 40 0
-41 -35 0
-41 40 0
35 -40 41 0
-29 -41 -42 0
29 41 -42 0
-29 41 42 0
29 -41 42 0
-28 -42 -43 0
28 42 -43 0
-28 42 43 0
28 -42 43 0
-44 36 0
-44 16 0
-36 -16 44 0
45 13 0
45 -44 0
-13 44 -45 0
-46 -45 0
-46 -37 0
45 37 46 0
-47 -2 0
-47 -44 0
2 44 47 0
-46 47 -48 0
46 -47 -48 0
-46 -47 48 0
46 47 48 0
-17 -13 -49 0
17 13 -49 0
-17 13 49 0
17 -13 49 0
50 49 0
50 38 0
-49 -38 -50 0
-48 50 -51 0
48 -50 -51 0
-48 -50 51 0
48 50 51 0
-52 2 0
-52 -15 0
-2 15 52 0
53 -20 0
53 -52 0
20 52 -53 0
51 53 -54 0
-51 -53 -54 0
51 -53 54 0
-51 53 54 0
55 -43 0
55 -54 0
43 54 -55 0
56 -8 0
56 -55 0
8 55 -56 0
-1 34 -57 0
1 -34 -57 0
-1 -34 57 0
1 34 57 0
58 -56 0
58 57 0
56 -57 -58 0
-59 -45 0
-59 -39 0
45 39 59 0
20 -18 -60 0
-20 18 -60 0
20 18 60 0
-20 -18 60 0
-61 -3 0
-61 -60 0
3 60 61 0
-62 3 0
-62 61 0
-3 -61 62 0
-63 -62 0
-63 -32 0
62 32 63 0
-59 63 -64 0
59 -63 -64 0
-59 -63 64 0
59 63 64 0
65 -58 0
65 64 0
58 -64 -65 0
24 1 -66 0
-24 -1 -66 0
24 -1 66 0
-24 1 66 0
-67 -37 0
-67 5 0
37 -5 67 0
-67 -5 -68 0
67 5 -68 0
-67 5 68 0
67 -5 68 0
39 -45 -69 0
-39 45 -69 0
39 45 69 0
-39 -45 69 0
-68 -69 -70 0
68 69 -70 0
-68 69 70 0
68 -69 70 0
71 66 0
71 -70 0
-66 70 -71 0
-73 25 0
-73 72 0
-25 -72 73 0
74 71 0
74 73 0
-71 -73 -74 0
-36 17 -75 0
36 -17 -75 0
-36 -17 75 0
36 17 75 0
-75 36 -76 0
75 -36 -76 0
-75 -36 76 0
75 36 76 0
17 77 -78 0
-17 -77 -78 0
17 -77 78 0
-17 77 78 0
79 76 0
79 78 0
-76 -78 -79 0
-74 -79 -80 0
74 79 -80 0
-74 79 80 0
74 -79 80 0
65 -80 -81 0
-65 80 -81 0
65 80 81 0
-65 -80 81 0
21 67 -47 -57 0
-38 -63 -76 33 73 0
32 -4 -76 -25 -33 0
-25 44 14 12 63 0
-37 34 50 -12 0
-36 -18 -1 0
-45 60 -81 0
69 -57 -44 0
-18 21 -79 -33 14 2 0
80 14 0
-21 7 -13 -28 -64 56 0
-16 -50 38 0
-13 -12 52 0
49 -41 -50 -40 -27 0
8 6 11 -80 -37 -70 0
-51 75 27 0
57 -4 -55 0
-39 -50 0
-27 4 6 29 79 0
-62 -16 0
-75 -37 36 47 0
-4 -25 59 23 0
2 20 -26 17 56 0
-54 23 76 -19 0
47 56 -48 -11 -44 0
55 -5 0
-79 -31 -16 28 40 -41 0
32 45 -65 -55 -40 30 0
74 -59 43 77 20 0
60 -23 0
16 79 -65 8 -60 0
22 55 80 9 0
-13 -33 80 0
-18 -64 2 -63 69 0
-54 22 -62 70 0
-24 -43 -55 0
35 64 -1 0
-37 41 30 -36 0
-4 -36 -8 0
6 68 21 -15 -72 59 0
-74 27 -12 0
46 -39 0
-78 -2 0
20 74 -1 16 0
-36 58 10 65 -72 40 0
50 11 0
81 0
